2012,79.4,111.0,22.0,20.2,55.6,59.3,8.7,19.2,19.0,20.1,1.8,1.7,3.2,4.3,52.3,.706,.552,.377
2011,62.1,110.0,18.4,16.7,52.6,57.9,8.8,14.1,13.2,21.5,0.7,2.0,3.6,3.6,46.7,.780,.524,.354
2010,61.8,96.8,17.5,14.5,50.3,55.0,7.7,12.8,13.5,26.5,0.5,1.4,4.4,3.4,51.7,.705,.526,.222
